Route #1: 5 31 50 36 49 39 13 
Route #2: 57 23 4 51 41 33 
Route #3: 11 18 32 56 28 19 10 47 
Route #4: 54 8 21 43 12 45 38 22 37 
Route #5: 9 16 26 52 42 30 48 6 
Route #6: 2 55 44 53 25 29 
Route #7: 34 15 35 40 27 14 
Route #8: 3 24 17 20 46 
Route #9: 7 
cost 1674.87
